c A 3SAT instance whose satisfying assignment encodes the subset of [2, 3, 3] that add up to 5
c One possible solution is: [1, 1, 0]
p cnf 113 352
-4 34 35 0
-4 34 -35 0
-4 -34 35 0
-4 -34 -35 0
5 36 37 0
5 36 -37 0
5 -36 37 0
5 -36 -37 0
6 38 39 0
6 38 -39 0
6 -38 39 0
6 -38 -39 0
7 40 41 0
7 40 -41 0
7 -40 41 0
7 -40 -41 0
-8 42 43 0
-8 42 -43 0
-8 -42 43 0
-8 -42 -43 0
9 44 45 0
9 44 -45 0
9 -44 45 0
9 -44 -45 0
10 46 47 0
10 46 -47 0
10 -46 47 0
10 -46 -47 0
-11 48 49 0
-11 48 -49 0
-11 -48 49 0
-11 -48 -49 0
-12 1 4 0
-12 -1 4 0
-12 1 -4 0
12 -1 -4 0
-13 1 5 0
-13 -1 5 0
-13 1 -5 0
13 -1 -5 0
-14 2 6 0
-14 -2 6 0
-14 2 -6 0
14 -2 -6 0
-15 2 7 0
-15 -2 7 0
-15 2 -7 0
15 -2 -7 0
-16 2 8 0
-16 -2 8 0
-16 2 -8 0
16 -2 -8 0
-17 3 9 0
-17 -3 9 0
-17 3 -9 0
17 -3 -9 0
-18 3 10 0
-18 -3 10 0
-18 3 -10 0
18 -3 -10 0
-19 3 11 0
-19 -3 11 0
-19 3 -11 0
19 -3 -11 0
-20 12 50 0
-20 12 -50 0
20 -12 51 0
20 -12 -51 0
-21 13 52 0
-21 13 -52 0
21 -13 53 0
21 -13 -53 0
-22 20 14 0
22 -20 14 0
22 20 -14 0
-22 -20 -14 0
-25 20 14 0
-25 -20 14 0
-25 20 -14 0
25 -20 -14 0
-23 25 54 0
-54 21 15 0
54 -21 15 0
54 21 -15 0
54 -21 -15 0
23 -25 55 0
-55 21 15 0
55 -21 15 0
55 21 -15 0
55 -21 -15 0
23 25 56 0
56 21 15 0
-56 -21 15 0
56 21 -15 0
56 -21 -15 0
-23 -25 57 0
57 21 15 0
-57 -21 15 0
57 21 -15 0
57 -21 -15 0
23 25 58 0
58 21 15 0
58 -21 15 0
-58 21 -15 0
58 -21 -15 0
-23 -25 59 0
59 21 15 0
59 -21 15 0
-59 21 -15 0
59 -21 -15 0
-23 25 60 0
60 21 15 0
60 -21 15 0
60 21 -15 0
-60 -21 -15 0
23 -25 61 0
61 21 15 0
61 -21 15 0
61 21 -15 0
-61 -21 -15 0
-26 21 62 0
-62 15 25 0
62 -15 25 0
62 15 -25 0
62 -15 -25 0
-26 -21 63 0
-63 15 25 0
63 -15 25 0
63 15 -25 0
63 -15 -25 0
-26 21 64 0
64 15 25 0
-64 -15 25 0
64 15 -25 0
64 -15 -25 0
26 -21 65 0
65 15 25 0
-65 -15 25 0
65 15 -25 0
65 -15 -25 0
-26 21 66 0
66 15 25 0
66 -15 25 0
-66 15 -25 0
66 -15 -25 0
26 -21 67 0
67 15 25 0
67 -15 25 0
-67 15 -25 0
67 -15 -25 0
26 21 68 0
68 15 25 0
68 -15 25 0
68 15 -25 0
-68 -15 -25 0
26 -21 69 0
69 15 25 0
69 -15 25 0
69 15 -25 0
-69 -15 -25 0
-24 26 70 0
-24 26 -70 0
24 -26 71 0
24 -26 -71 0
-27 22 17 0
27 -22 17 0
27 22 -17 0
-27 -22 -17 0
-31 22 17 0
-31 -22 17 0
-31 22 -17 0
31 -22 -17 0
-28 31 72 0
-72 23 18 0
72 -23 18 0
72 23 -18 0
72 -23 -18 0
28 -31 73 0
-73 23 18 0
73 -23 18 0
73 23 -18 0
73 -23 -18 0
28 31 74 0
74 23 18 0
-74 -23 18 0
74 23 -18 0
74 -23 -18 0
-28 -31 75 0
75 23 18 0
-75 -23 18 0
75 23 -18 0
75 -23 -18 0
28 31 76 0
76 23 18 0
76 -23 18 0
-76 23 -18 0
76 -23 -18 0
-28 -31 77 0
77 23 18 0
77 -23 18 0
-77 23 -18 0
77 -23 -18 0
-28 31 78 0
78 23 18 0
78 -23 18 0
78 23 -18 0
-78 -23 -18 0
28 -31 79 0
79 23 18 0
79 -23 18 0
79 23 -18 0
-79 -23 -18 0
-32 23 80 0
-80 18 31 0
80 -18 31 0
80 18 -31 0
80 -18 -31 0
-32 -23 81 0
-81 18 31 0
81 -18 31 0
81 18 -31 0
81 -18 -31 0
-32 23 82 0
82 18 31 0
-82 -18 31 0
82 18 -31 0
82 -18 -31 0
32 -23 83 0
83 18 31 0
-83 -18 31 0
83 18 -31 0
83 -18 -31 0
-32 23 84 0
84 18 31 0
84 -18 31 0
-84 18 -31 0
84 -18 -31 0
32 -23 85 0
85 18 31 0
85 -18 31 0
-85 18 -31 0
85 -18 -31 0
32 23 86 0
86 18 31 0
86 -18 31 0
86 18 -31 0
-86 -18 -31 0
32 -23 87 0
87 18 31 0
87 -18 31 0
87 18 -31 0
-87 -18 -31 0
-29 32 88 0
-88 24 19 0
88 -24 19 0
88 24 -19 0
88 -24 -19 0
29 -32 89 0
-89 24 19 0
89 -24 19 0
89 24 -19 0
89 -24 -19 0
29 32 90 0
90 24 19 0
-90 -24 19 0
90 24 -19 0
90 -24 -19 0
-29 -32 91 0
91 24 19 0
-91 -24 19 0
91 24 -19 0
91 -24 -19 0
29 32 92 0
92 24 19 0
92 -24 19 0
-92 24 -19 0
92 -24 -19 0
-29 -32 93 0
93 24 19 0
93 -24 19 0
-93 24 -19 0
93 -24 -19 0
-29 32 94 0
94 24 19 0
94 -24 19 0
94 24 -19 0
-94 -24 -19 0
29 -32 95 0
95 24 19 0
95 -24 19 0
95 24 -19 0
-95 -24 -19 0
-33 24 96 0
-96 19 32 0
96 -19 32 0
96 19 -32 0
96 -19 -32 0
-33 -24 97 0
-97 19 32 0
97 -19 32 0
97 19 -32 0
97 -19 -32 0
-33 24 98 0
98 19 32 0
-98 -19 32 0
98 19 -32 0
98 -19 -32 0
33 -24 99 0
99 19 32 0
-99 -19 32 0
99 19 -32 0
99 -19 -32 0
-33 24 100 0
100 19 32 0
100 -19 32 0
-100 19 -32 0
100 -19 -32 0
33 -24 101 0
101 19 32 0
101 -19 32 0
-101 19 -32 0
101 -19 -32 0
33 24 102 0
102 19 32 0
102 -19 32 0
102 19 -32 0
-102 -19 -32 0
33 -24 103 0
103 19 32 0
103 -19 32 0
103 19 -32 0
-103 -19 -32 0
-30 33 104 0
-30 33 -104 0
30 -33 105 0
30 -33 -105 0
27 106 107 0
27 106 -107 0
27 -106 107 0
27 -106 -107 0
-28 108 109 0
-28 108 -109 0
-28 -108 109 0
-28 -108 -109 0
29 110 111 0
29 110 -111 0
29 -110 111 0
29 -110 -111 0
-30 112 113 0
-30 112 -113 0
-30 -112 113 0
-30 -112 -113 0
